(set-logic QF_FPBV)
(set-info :source |Random FP created by PyMPF|)
(set-info :category random)
(set-info :status unsat)
;; fp.from.ubv(BitVec 16)
(declare-const x (_ BitVec 16))
(assert (bvule x #b0011010011111011))
;; x should be 13563
(declare-const r Float64)
(assert (= r ((_ to_fp_unsigned 11 53) RNE x)))
(assert (not (fp.leq r ((_ to_fp 11 53) #x40CA7D8000000000))))
(check-sat)
(exit)
